CST01
Position Depot: Center
Horizon for Depot: Small
Position of customers: Cluster
Distribution of the demand: Large
Width of time windows: Tight
Distribution of the service: Large

VEHICLE 
NUMBER 	 CAPACITY 
 10 	 	 530 
 
CUSTOMER
CUST NO. 	 XCOORD.  	 YCOORD. 	 DEMAND 	 READY TIME 	 DUE DATE 	 SERVICE TIME 
 0 	 	 500 	 	 500 	 	 0 	 	 0 	 	 1976 	 	 0 
  1 	 	 829 	 	 2 	 	 74 	 	 1568 	 	 1697 	 	 138 
  2 	 	 151 	 	 727 	 	 58 	 	 1632 	 	 1815 	 	 198 
  3 	 	 659 	 	 999 	 	 82 	 	 477 	 	 576 	 	 154 
  4 	 	 926 	 	 570 	 	 20 	 	 1215 	 	 1368 	 	 109 
  5 	 	 359 	 	 647 	 	 54 	 	 1674 	 	 1837 	 	 186 
  6 	 	 244 	 	 877 	 	 69 	 	 533 	 	 646 	 	 171 
  7 	 	 311 	 	 811 	 	 5 	 	 1789 	 	 1976 	 	 119 
  8 	 	 144 	 	 669 	 	 17 	 	 1097 	 	 1293 	 	 150 
  9 	 	 964 	 	 629 	 	 10 	 	 1442 	 	 1546 	 	 100 
  10 	 	 121 	 	 730 	 	 62 	 	 1742 	 	 1928 	 	 122 
  11 	 	 105 	 	 720 	 	 58 	 	 1390 	 	 1465 	 	 133 
  12 	 	 574 	 	 988 	 	 76 	 	 1906 	 	 1976 	 	 166 
  13 	 	 355 	 	 816 	 	 38 	 	 1137 	 	 1264 	 	 170 
  14 	 	 172 	 	 792 	 	 15 	 	 864 	 	 1029 	 	 133 
  15 	 	 45 	 	 604 	 	 13 	 	 794 	 	 967 	 	 155 
  16 	 	 248 	 	 917 	 	 45 	 	 1183 	 	 1258 	 	 132 
  17 	 	 938 	 	 998 	 	 63 	 	 958 	 	 1075 	 	 131 
  18 	 	 108 	 	 714 	 	 36 	 	 1723 	 	 1885 	 	 140 
  19 	 	 253 	 	 728 	 	 86 	 	 1342 	 	 1405 	 	 102 
  20 	 	 915 	 	 544 	 	 74 	 	 1371 	 	 1470 	 	 172 
  21 	 	 61 	 	 639 	 	 4 	 	 1665 	 	 1719 	 	 147 
  22 	 	 938 	 	 604 	 	 51 	 	 1013 	 	 1080 	 	 152 
  23 	 	 525 	 	 991 	 	 68 	 	 1176 	 	 1234 	 	 118 
  24 	 	 55 	 	 741 	 	 94 	 	 655 	 	 774 	 	 148 
  25 	 	 331 	 	 737 	 	 6 	 	 767 	 	 966 	 	 101 
  26 	 	 208 	 	 785 	 	 20 	 	 1423 	 	 1601 	 	 125 
  27 	 	 268 	 	 957 	 	 80 	 	 388 	 	 563 	 	 110 
  28 	 	 387 	 	 689 	 	 2 	 	 731 	 	 920 	 	 154 
  29 	 	 241 	 	 692 	 	 68 	 	 496 	 	 660 	 	 167 
  30 	 	 915 	 	 716 	 	 2 	 	 614 	 	 806 	 	 111 
  31 	 	 286 	 	 693 	 	 95 	 	 1411 	 	 1530 	 	 200 
  32 	 	 914 	 	 567 	 	 93 	 	 305 	 	 461 	 	 153 
  33 	 	 657 	 	 964 	 	 12 	 	 712 	 	 836 	 	 121 
  34 	 	 955 	 	 680 	 	 98 	 	 431 	 	 538 	 	 127 
  35 	 	 998 	 	 706 	 	 8 	 	 1541 	 	 1593 	 	 118 
  36 	 	 794 	 	 18 	 	 36 	 	 450 	 	 621 	 	 133 
  37 	 	 217 	 	 856 	 	 88 	 	 1430 	 	 1583 	 	 186 
  38 	 	 171 	 	 773 	 	 77 	 	 940 	 	 1021 	 	 116 
  39 	 	 988 	 	 327 	 	 91 	 	 1549 	 	 1599 	 	 143 
  40 	 	 848 	 	 15 	 	 69 	 	 1021 	 	 1219 	 	 137 
  41 	 	 304 	 	 875 	 	 4 	 	 1646 	 	 1765 	 	 141 
  42 	 	 888 	 	 590 	 	 85 	 	 266 	 	 438 	 	 194 
  43 	 	 999 	 	 611 	 	 93 	 	 1658 	 	 1768 	 	 102 
  44 	 	 191 	 	 892 	 	 79 	 	 819 	 	 914 	 	 186 
  45 	 	 223 	 	 879 	 	 11 	 	 425 	 	 619 	 	 102 
  46 	 	 933 	 	 537 	 	 92 	 	 1796 	 	 1976 	 	 173 
  47 	 	 870 	 	 42 	 	 58 	 	 450 	 	 647 	 	 150 
  48 	 	 783 	 	 103 	 	 72 	 	 409 	 	 536 	 	 176 
  49 	 	 617 	 	 986 	 	 87 	 	 358 	 	 549 	 	 187 
  50 	 	 283 	 	 920 	 	 45 	 	 1044 	 	 1211 	 	 157 
  51 	 	 655 	 	 987 	 	 25 	 	 778 	 	 856 	 	 141 
  52 	 	 995 	 	 651 	 	 93 	 	 1422 	 	 1537 	 	 103 
  53 	 	 148 	 	 789 	 	 100 	 	 348 	 	 500 	 	 107 
  54 	 	 956 	 	 573 	 	 70 	 	 574 	 	 755 	 	 143 
  55 	 	 735 	 	 104 	 	 75 	 	 1114 	 	 1216 	 	 105 
  56 	 	 846 	 	 0 	 	 62 	 	 561 	 	 668 	 	 194 
  57 	 	 428 	 	 661 	 	 54 	 	 649 	 	 807 	 	 160 
  58 	 	 689 	 	 995 	 	 56 	 	 1318 	 	 1429 	 	 141 
  59 	 	 308 	 	 772 	 	 23 	 	 179 	 	 366 	 	 159 
  60 	 	 217 	 	 862 	 	 59 	 	 413 	 	 505 	 	 181 
  61 	 	 843 	 	 34 	 	 62 	 	 787 	 	 976 	 	 106 
  62 	 	 260 	 	 891 	 	 16 	 	 862 	 	 918 	 	 112 
  63 	 	 345 	 	 628 	 	 66 	 	 1769 	 	 1885 	 	 161 
  64 	 	 658 	 	 957 	 	 29 	 	 814 	 	 966 	 	 172 
  65 	 	 414 	 	 636 	 	 3 	 	 443 	 	 611 	 	 182 
  66 	 	 800 	 	 52 	 	 90 	 	 422 	 	 593 	 	 199 
  67 	 	 270 	 	 876 	 	 81 	 	 287 	 	 484 	 	 147 
  68 	 	 918 	 	 585 	 	 96 	 	 406 	 	 469 	 	 129 
  69 	 	 331 	 	 627 	 	 95 	 	 124 	 	 232 	 	 128 
  70 	 	 371 	 	 625 	 	 65 	 	 1077 	 	 1258 	 	 138 
  71 	 	 343 	 	 750 	 	 18 	 	 1153 	 	 1258 	 	 101 
  72 	 	 418 	 	 784 	 	 69 	 	 358 	 	 500 	 	 185 
  73 	 	 172 	 	 741 	 	 77 	 	 1413 	 	 1591 	 	 140 
  74 	 	 365 	 	 794 	 	 40 	 	 1352 	 	 1515 	 	 114 
  75 	 	 191 	 	 827 	 	 100 	 	 792 	 	 936 	 	 169 
  76 	 	 386 	 	 660 	 	 9 	 	 146 	 	 331 	 	 114 
  77 	 	 239 	 	 855 	 	 22 	 	 741 	 	 915 	 	 174 
  78 	 	 959 	 	 538 	 	 48 	 	 681 	 	 796 	 	 109 
  79 	 	 360 	 	 650 	 	 56 	 	 62 	 	 225 	 	 142 
  80 	 	 359 	 	 572 	 	 14 	 	 506 	 	 615 	 	 186 
  81 	 	 350 	 	 474 	 	 8 	 	 575 	 	 701 	 	 118 
  82 	 	 278 	 	 849 	 	 30 	 	 701 	 	 793 	 	 192 
  83 	 	 203 	 	 714 	 	 85 	 	 1059 	 	 1237 	 	 105 
  84 	 	 931 	 	 510 	 	 98 	 	 1656 	 	 1838 	 	 112 
  85 	 	 602 	 	 910 	 	 23 	 	 1344 	 	 1433 	 	 172 
  86 	 	 94 	 	 735 	 	 28 	 	 849 	 	 1033 	 	 147 
  87 	 	 271 	 	 835 	 	 73 	 	 678 	 	 771 	 	 171 
  88 	 	 923 	 	 498 	 	 28 	 	 664 	 	 715 	 	 104 
  89 	 	 795 	 	 53 	 	 48 	 	 709 	 	 832 	 	 155 
  90 	 	 416 	 	 514 	 	 70 	 	 130 	 	 322 	 	 194 
  91 	 	 185 	 	 884 	 	 18 	 	 765 	 	 911 	 	 183 
  92 	 	 766 	 	 20 	 	 35 	 	 789 	 	 902 	 	 140 
  93 	 	 857 	 	 576 	 	 66 	 	 1060 	 	 1138 	 	 107 
  94 	 	 280 	 	 885 	 	 45 	 	 1224 	 	 1342 	 	 109 
  95 	 	 223 	 	 856 	 	 65 	 	 357 	 	 496 	 	 114 
  96 	 	 161 	 	 897 	 	 68 	 	 411 	 	 574 	 	 125 
  97 	 	 914 	 	 569 	 	 8 	 	 339 	 	 461 	 	 191 
  98 	 	 176 	 	 898 	 	 38 	 	 1703 	 	 1875 	 	 106 
  99 	 	 144 	 	 764 	 	 62 	 	 436 	 	 487 	 	 194 
  100 	 	 339 	 	 737 	 	 88 	 	 1429 	 	 1605 	 	 170 
 